# created by fftool

units real
boundary p p p

atom_style full
bond_style harmonic
angle_style harmonic
special_bonds lj/coul 0.0 0.0 0.5

read_data data.eq.lmp
# read_restart restart.*.lmp
# reset_timestep 0

pair_style hybrid lj/cut/coul/long 10.0 10.0
pair_modify tail yes
kspace_style pppm 1.0e-4

pair_coeff    1    1  lj/cut/coul/long    0.0028   2.7800  # Ne Ne
pair_coeff    1    2  lj/cut/coul/long    0.0000   1.0000  # Ne Hw
pair_coeff    1    3  lj/cut/coul/long    0.0208   2.9665  # Ne Ow
pair_coeff    2    2  lj/cut/coul/long    0.0000   1.0000  # Hw Hw
pair_coeff    2    3  lj/cut/coul/long    0.0000   1.0000  # Hw Ow
pair_coeff    3    3  lj/cut/coul/long    0.1554   3.1655  # Ow Ow

timestep 0.0

fix nve all nve

variable qNa equal ramp(0.0,1.0)
variable epsOO equal ramp(0.1554,0.0554)
variable dqNa equal 0.1
variable depsOO equal -0.01

fix fADAPT all adapt/fep 1 atom charge 1 v_qNa pair lj/cut/coul/long epsilon 3 3 v_epsOO reset yes
compute cFEP all fep 300 atom charge 1 v_dqNa pair lj/cut/coul/long epsilon 3 3 v_depsOO tail yes

variable ecoul_tot equal ecoul+elong
thermo_style custom step v_qNa v_epsOO pe evdwl ecoul elong v_ecoul_tot c_cFEP[1]
thermo_modify format float %12.4f
thermo 1

run 10 post no

unfix fADAPT
run 0 post no
