# created by fftool

units real
boundary p p p

atom_style full
bond_style harmonic
angle_style harmonic
special_bonds lj/coul 0.0 0.0 0.5

read_data data.tip4p.lmp
# read_restart restart.*.lmp
# reset_timestep 0

pair_style hybrid lj/cut/tip4p/long/soft 2 3 1 1 0.15 1 0.5 10.0 10.0 10.0 &
                  lj/cut/tip4p/long 2 3 1 1 0.15 10.0 10.0
pair_modify tail yes
kspace_style pppm/tip4p 1.0e-4

pair_coeff    1    1  lj/cut/tip4p/long/soft    0.0028   2.7800  0.5 # Ne Ne
pair_coeff    1    2  lj/cut/tip4p/long/soft    0.0212   2.9660  0.5 # Ne Ow
pair_coeff    1    3  lj/cut/tip4p/long/soft    0.0000   1.0000  0.5 # Ne Hw
pair_coeff    2    2  lj/cut/tip4p/long    0.1628   3.1644  # Ow Ow
pair_coeff    2    3  lj/cut/tip4p/long    0.0000   1.0000  # Ow Hw
pair_coeff    3    3  lj/cut/tip4p/long    0.0000   1.0000  # Hw Hw

variable nsteps index 1000
variable nprint equal ${nsteps}/10
variable ndump equal ${nsteps}/100
# variable nrestart equal ${nsteps}/10

variable temp equal 300.0
variable press equal 1.0

neighbor 2.0 bin

timestep 1.0

velocity all create ${temp} 12345

# thermo_style multi
thermo_style custom step etotal pe ke evdwl ecoul elong temp press
thermo ${nprint}

fix fSHAKE all shake 0.0001 20 0 b 1 a 1

fix fNVT all nvt temp ${temp} ${temp} 100
# fix fNPT all npt temp ${temp} ${temp} 100 iso ${press} ${press} 500

# dump dCONF all custom ${ndump} dump.lammpstrj id mol type element x y z ix iy iz
# dump_modify dCONF element Ne O H

# restart ${nrestart} restart.*.lmp

run ${nsteps} post no

# write_restart restart.*.lmp
# write_data data.*.lmp
